12 1 4 9 13 0 11 8 3 5 6 14 10 2 7
5 1 14 10 13 9 6 12 8 2 7 0 3 4 11
6 3 10 7 13 4 5 9 8 2 0 1 11 14 12
10 7 5 0 9 13 2 8 1 14 11 3 12 6 4
6 12 14 1 7 5 11 0 2 3 8 13 4 9 10
4 7 6 0 8 13 12 14 3 2 5 9 10 1 11
10 11 6 9 0 2 1 8 12 7 5 3 13 14 4
3 10 5 6 8 4 0 14 2 7 9 11 12 1 13
1 2 6 7 10 12 14 8 0 3 13 5 4 9 11
12 7 6 14 3 4 0 13 10 8 11 9 5 2 1
4 3 8 14 2 13 5 6 10 12 7 11 1 9 0
6 12 7 5 2 4 13 11 8 0 10 3 1 9 14
12 13 8 7 1 6 0 5 9 10 4 2 14 3 11
12 1 4 8 6 10 7 3 0 5 13 2 9 14 11
7 5 0 10 2 3 9 6 11 8 1 4 14 12 13